n = 50;
C = 6503;
w = [222,464,157,477,82,374,439,267,310,81,121,467,255,293,382,4,326,212,343,52,488,149,446,80,386,72,253,40,477,441,161,287,330,14,202,266,91,468,116,364,283,238,286,154,300,408,31,268,477,102];
p = [222,464,157,477,82,374,439,267,310,81,121,467,255,293,382,4,326,212,343,52,488,149,446,80,386,72,253,40,477,441,161,287,330,14,202,266,91,468,116,364,283,238,286,154,300,408,31,268,477,102];
